(set-logic QF_SLIA)
(declare-fun var0 () String)
(assert (str.in_re var0 (re.++ ((_ re.loop 2 324) (re.++ (re.union (str.to_re "8D&") (re.union (str.to_re "!D2") (re.union (str.to_re "]") (str.to_re "J")))) (re.++ (re.union (str.to_re "g") (re.union (str.to_re "EH") (re.union (str.to_re "MgS") (str.to_re "9")))) (re.++ (re.union (str.to_re "\\j") (re.union (str.to_re "J") (re.union (str.to_re "ta") (str.to_re "E")))) (re.union (str.to_re "~") (re.union (str.to_re "bFl") (re.union (str.to_re "m^") (str.to_re ">Q4")))))))) (re.++ ((_ re.loop 10 761) (re.++ (re.union (str.to_re "27") (re.union (str.to_re "fab") (re.union (str.to_re ";i!") (str.to_re "X")))) (re.++ (re.union (str.to_re "\u0022") (re.union (str.to_re "q") (re.union (str.to_re "\\m") (str.to_re "p=")))) (re.++ (re.union (str.to_re "-'") (re.union (str.to_re "l") (re.union (str.to_re "V'") (str.to_re "Q2")))) (re.union (str.to_re "v") (re.union (str.to_re "!]!") (re.union (str.to_re "Bh\\") (str.to_re "Z")))))))) (re.++ ((_ re.loop 1 436) (re.++ (re.union (str.to_re "[D") (re.union (str.to_re "H6;") (re.union (str.to_re "SxI") (str.to_re "j?o")))) (re.++ (re.union (str.to_re "W[") (re.union (str.to_re "F") (re.union (str.to_re "|") (str.to_re "0")))) (re.++ (re.union (str.to_re "0") (re.union (str.to_re "i") (re.union (str.to_re "-Vp") (str.to_re "$p")))) (re.union (str.to_re "b)") (re.union (str.to_re "<^") (re.union (str.to_re "WK~") (str.to_re "^_")))))))) ((_ re.loop 13 95) (re.++ (re.union (str.to_re "y") (re.union (str.to_re ":r") (re.union (str.to_re "]4r") (str.to_re "u;")))) (re.++ (re.union (str.to_re "\\") (re.union (str.to_re "/") (re.union (str.to_re "f*") (str.to_re "d3")))) (re.++ (re.union (str.to_re "3l") (re.union (str.to_re "h") (re.union (str.to_re "3") (str.to_re "p")))) (re.union (str.to_re "]8") (re.union (str.to_re "<U") (re.union (str.to_re "UY") (str.to_re "52")))))))))))))
(assert (not (str.in_re var0 (re.++ ((_ re.loop 18 780) (re.++ (re.union (str.to_re "<p") (re.union (str.to_re "#,_") (re.union (str.to_re ".") (str.to_re "m")))) (re.++ (re.union (str.to_re "X_") (re.union (str.to_re "m(w") (re.union (str.to_re "r,") (str.to_re "`")))) (re.++ (re.union (str.to_re "O&d") (re.union (str.to_re "w") (re.union (str.to_re "1ll") (str.to_re "-")))) (re.union (str.to_re "K") (re.union (str.to_re "@~") (re.union (str.to_re "O4") (str.to_re "hgP")))))))) (re.++ ((_ re.loop 3 282) (re.++ (re.union (str.to_re "'") (re.union (str.to_re "X&") (re.union (str.to_re "h") (str.to_re "hb")))) (re.++ (re.union (str.to_re "Rj") (re.union (str.to_re "z") (re.union (str.to_re "sx") (str.to_re "}6j")))) (re.++ (re.union (str.to_re ",") (re.union (str.to_re "%3G") (re.union (str.to_re "b]") (str.to_re "0MW")))) (re.union (str.to_re "uh?") (re.union (str.to_re ";") (re.union (str.to_re "APA") (str.to_re "fur")))))))) (re.++ ((_ re.loop 11 678) (re.++ (re.union (str.to_re "S%") (re.union (str.to_re "(") (re.union (str.to_re ";") (str.to_re "Un")))) (re.++ (re.union (str.to_re "P<") (re.union (str.to_re "{,Y") (re.union (str.to_re "]cI") (str.to_re "l.%")))) (re.++ (re.union (str.to_re "8") (re.union (str.to_re "\\") (re.union (str.to_re "*v") (str.to_re "Q")))) (re.union (str.to_re "P|") (re.union (str.to_re "n") (re.union (str.to_re "(J") (str.to_re "Y$")))))))) ((_ re.loop 1 744) (re.++ (re.union (str.to_re "{dc") (re.union (str.to_re "PhS") (re.union (str.to_re "5h") (str.to_re "v")))) (re.++ (re.union (str.to_re "#") (re.union (str.to_re "n") (re.union (str.to_re "\\x|") (str.to_re "7")))) (re.++ (re.union (str.to_re "N") (re.union (str.to_re "1") (re.union (str.to_re "4UM") (str.to_re "mu")))) (re.union (str.to_re "Bh") (re.union (str.to_re "R") (re.union (str.to_re "|T") (str.to_re "x"))))))))))))))
(assert (not (str.in_re var0 (re.++ (re.* re.allchar) (re.++ (re.union (str.to_re "<") (re.union (str.to_re ">") (re.union (str.to_re "'") (re.union (str.to_re "\u0022") (str.to_re "&"))))) (re.* re.allchar))))))
(assert (<= 50 (str.len var0)))
(check-sat)
(get-model)
